data;

param num_top:=4;

#nodes and edges of the physical network
param n := 10;

set E := (1,2) (1,3) (1,7) (2,4) (2,7) (3,5) (4,8) (5,6) (5,7) (6,7) (6,9) (7,8) (7,9) (8,10) (9,10) ;

#nodes and edges of the virtual networks
set Nl[1] := 9 4 1 6 5 ;
set Nl[2] := 2 7 3 8 5 ;
set Nl[3] := 5 7 8 4 1 ;
set Nl[4] := 10 7 9 1 5 ;

set El[1] := (4,9) (1,4) (1,6) (5,6) (5,9) (1,5) (4,6) (4,5) (1,9) (6,9) ;
set El[2] := (2,7) (3,7) (3,8) (5,8) (2,5) (7,8) (3,5) (5,7) (2,8) (2,3) ;
set El[3] := (5,7) (7,8) (4,8) (1,4) (1,5) (4,7) (4,5) (5,8) (1,7) (1,8) ;
set El[4] := (7,10) (7,9) (1,9) (1,5) (5,10) (5,7) (1,7) (9,10) (1,10) (5,9) ;
